50

100 50 307
99 42 301
97 27 292
97 19 354
96 42 345
96 30 360
95 1 313
92 42 303
92 9 348
90 35 342
90 44 276
88 21 278
87 31 337
87 12 314
85 28 267
84 4 311
83 17 309
82 14 324
81 14 323
79 30 326
74 11 260
68 34 256
68 25 344
63 29 355
59 28 316
58 3 343
56 20 234
55 5 339
55 28 312
51 18 281
50 15 344
49 7 336
49 9 343
49 1 286
47 15 296
44 11 242
44 18 163
42 6 344
39 19 357
37 19 250
37 16 177
34 6 197
34 14 248
34 10 321
33 15 158
33 7 103
31 3 222
30 14 296
30 10 308
30 11 258
